p tw 156 476
0 1
0 2
0 3
0 4
0 5
0 6
0 19
1 2
1 3
1 4
1 5
1 6
1 20
1 151
1 155
2 3
2 4
2 5
2 6
2 82
3 4
3 5
3 6
3 33
3 34
3 35
3 36
4 5
4 6
4 13
4 14
5 6
5 83
5 123
5 124
6 7
6 8
6 9
7 8
7 9
7 47
8 9
8 19
8 20
8 21
9 76
9 127
9 145
9 155
10 11
10 12
10 42
10 117
11 12
11 43
11 89
12 49
12 90
12 95
12 102
13 14
13 33
13 123
14 82
14 83
15 16
15 101
15 121
15 131
16 98
16 125
16 126
17 18
17 111
17 112
17 113
17 114
17 115
18 125
18 128
18 134
18 141
18 142
18 143
18 144
19 20
19 21
20 21
20 151
20 155
21 47
22 23
22 61
22 66
22 67
22 68
22 69
22 70
23 92
23 93
23 94
24 25
24 26
24 27
24 28
24 133
24 138
25 26
25 27
25 28
25 38
25 45
25 46
26 27
26 28
26 37
26 50
26 51
26 52
26 53
27 28
27 58
27 59
28 129
28 130
29 30
29 102
29 110
29 126
29 131
29 132
30 95
30 96
30 97
30 98
30 99
30 100
30 101
31 32
31 137
32 109
32 136
32 140
33 34
33 35
33 36
33 123
34 35
34 36
34 79
34 147
34 153
35 36
35 124
35 151
35 152
36 77
37 38
37 50
37 51
37 52
37 53
38 45
38 46
39 40
39 41
39 42
39 43
39 44
39 84
39 116
39 118
40 41
40 42
40 43
40 44
40 103
41 42
41 43
41 44
41 78
42 43
42 44
42 117
43 44
43 89
44 54
44 55
44 56
44 57
45 46
45 50
45 71
46 51
46 58
46 129
48 49
48 87
48 96
48 110
49 90
49 95
49 102
50 51
50 52
50 53
50 71
51 52
51 53
51 58
51 129
52 53
52 59
53 72
53 76
54 55
54 56
54 57
54 103
54 116
54 117
55 56
55 57
55 121
55 122
56 57
56 118
56 119
57 78
57 84
58 59
58 129
60 61
60 62
60 63
60 139
60 150
61 62
61 63
61 66
61 67
61 68
61 69
61 70
62 63
62 74
62 75
63 104
63 105
63 106
64 65
64 115
64 127
64 128
65 73
65 114
65 144
65 145
66 67
66 68
66 69
66 70
66 74
66 104
66 107
66 109
67 68
67 69
67 70
67 75
67 150
68 69
68 70
68 88
68 92
68 120
69 70
69 91
69 94
69 106
70 139
71 72
71 73
72 73
72 76
73 114
73 144
73 145
74 75
74 104
74 107
74 109
75 150
76 127
76 145
76 155
77 152
78 84
79 80
79 81
79 147
79 153
80 81
80 148
81 149
82 83
83 123
83 124
84 116
84 118
85 86
85 97
85 112
85 141
86 113
86 133
86 134
87 88
87 89
87 90
87 91
87 96
87 110
88 89
88 90
88 91
88 92
88 120
89 90
89 91
90 91
90 95
90 102
91 94
91 106
92 93
92 94
92 120
93 94
93 154
94 106
95 96
95 97
95 98
95 99
95 100
95 101
95 102
96 97
96 98
96 99
96 100
96 101
96 110
97 98
97 99
97 100
97 101
97 112
97 141
98 99
98 100
98 101
98 125
98 126
99 100
99 101
99 147
99 148
100 101
100 119
100 122
100 132
101 121
101 131
102 110
102 126
102 131
102 132
103 116
103 117
104 105
104 106
104 107
104 109
105 106
105 108
107 108
107 109
109 136
109 140
110 126
110 131
110 132
111 112
111 113
111 114
111 115
111 130
111 138
111 143
112 113
112 114
112 115
112 141
113 114
113 115
113 133
113 134
114 115
114 144
114 145
115 127
115 128
116 117
116 118
118 119
119 122
119 132
120 154
121 122
121 131
122 132
123 124
124 151
124 152
125 126
125 128
125 134
125 141
125 142
125 143
125 144
126 131
126 132
127 128
127 145
127 155
128 134
128 141
128 142
128 143
128 144
129 130
130 138
130 143
131 132
133 134
133 138
134 141
134 142
134 143
134 144
135 136
135 137
135 146
136 137
136 140
138 143
139 150
140 142
140 146
141 142
141 143
141 144
142 143
142 144
142 146
143 144
144 145
145 155
147 148
147 153
149 153
151 152
151 155
